0 27 69 1 70 30 32 90 63 10 62 31 88 7 48 19 49 36 46 8 45 83 18 52 0
0 6 94 95 97 92 37 98 85 93 59 96 99 5 84 61 16 44 38 14 42 15 57 2 58 0
0 26 12 76 77 3 33 51 9 71 66 65 35 34 29 24 54 4 55 25 39 23 56 75 22 41 73 21 40 53 0
